c --- [ banner ] -------------------------------------------------------------
c 
c CaDiCaL Radically Simplified CDCL SAT Solver
c Copyright (c) 2016-2021 A. Biere, M. Fleury, N. Froleyks
c 
c Version 1.5.2 a5f15211db36c3956764e18194dd5bd63bf3b5e6
c g++ (GCC) 9.3.0 -Wall -Wextra -O3 -DNDEBUG
c Fri Oct 21 01:27:37 EDT 2022 Linux gra-login3 3.10.0-1160.66.1.el7.x86_64 x86_64
c 
c --- [ limit ] --------------------------------------------------------------
c 
c setting conflict limit to 200000 conflicts (due to '200000')
c 
c --- [ parsing input ] ------------------------------------------------------
c 
c reading DIMACS file from '33.cubes2633.adj'
c opening file to read '33.cubes2633.adj'
c found 'p cnf 6160 1595475' header
c parsed 1595475 clauses in 19.03 seconds process time
c closing file '33.cubes2633.adj'
c after reading 1457566775 bytes 1390.0 MB
c 
c --- [ options ] ------------------------------------------------------------
c 
c all options are set to their default value
c 
c --- [ solving ] ------------------------------------------------------------
c 
c time measured in process time since initialization
c 
c  seconds    reductions  redundant   irredundant
c          MB     restarts       trail       variables
c            level   conflicts       glue         remaining
c 
c * 19.04 1379  0 0   0    0    0  0% 0 1595422 2389 39%
c { 20.94 1444  0 0   0    0    0  0% 0 1595422 2389 39%
c i 26.15 1509 207 0  25  182  146 31% 25 1595422 2388 39%
c i 27.97 1516 165 0  37  287  223 29% 28 1595422 2387 39%
c i 28.02 1516 163 0  37  293  228 29% 28 1595422 2386 39%
c i 28.02 1516 162 0  37  295  229 29% 28 1595422 2385 39%
c - 31.73 1505 160 1  37  300  234 29% 29 299747 2385 39%
c i 32.25 1411 153 1  39  323  254 29% 29 299747 2384 39%
c i 32.27 1411 152 1  39  327  257 29% 29 299747 2383 39%
c i 32.28 1411 152 1  39  328  257 29% 29 299747 2382 39%
c i 32.30 1382 149 1  39  335  263 29% 28 299747 2381 39%
c i 32.30 1382 149 1  39  336  263 29% 28 299747 2380 39%
c i 32.31 1382 148 1  39  338  264 29% 28 299747 2379 39%
c i 32.31 1382 147 1  39  339  264 29% 28 299747 2378 39%
c i 32.31 1382 147 1  39  340  264 29% 28 299747 2377 39%
c i 32.31 1382 147 1  39  341  264 29% 28 299747 2376 39%
c i 32.31 1382 146 1  39  342  264 29% 28 299747 2375 39%
c i 32.34 1382 145 1  39  346  267 29% 28 299747 2374 39%
c i 32.42 1382 140 1  39  362  282 29% 27 299747 2373 39%
c i 32.43 1382 136 1  39  377  296 29% 27 299747 2372 39%
c 
c  seconds     reductions  redundant   irredundant
c          MB      restarts       trail       variables
c             level   conflicts       glue         remaining
c 
c i 32.43 1382 136 1  39  378  296 29% 27 299747 2371 38%
c i 32.44 1382 132 1  39  394  310 29% 27 299747 2370 38%
c i 32.44 1382 131 1  39  396  311 29% 27 299747 2369 38%
c i 32.44 1382 131 1  39  397  311 29% 27 299747 2368 38%
c i 32.45 1382 129 1  39  405  318 29% 27 299747 2367 38%
c i 32.45 1382 129 1  39  406  318 29% 27 299747 2366 38%
c i 32.45 1382 127 1  39  413  324 29% 27 299747 2365 38%
c i 32.45 1382 127 1  39  414  324 29% 27 299747 2364 38%
c i 32.45 1382 127 1  39  415  324 29% 27 299747 2363 38%
c i 32.46 1382 126 1  39  416  324 29% 27 299747 2362 38%
c i 32.46 1382 125 1  39  420  327 29% 26 299747 2361 38%
c i 32.46 1382 124 1  39  425  331 29% 26 299747 2360 38%
c i 32.46 1382 123 1  39  429  334 29% 26 299747 2359 38%
c i 32.47 1382 122 1  39  434  338 29% 26 299747 2358 38%
c i 32.52 1382 118 1  39  466  366 29% 27 299747 2357 38%
c i 32.54 1382 112 1  39  497  388 29% 26 299747 2356 38%
c i 32.57 1382 106 1  42  547  430 30% 27 299747 2355 38%
c i 32.59 1382 104 1  42  560  441 30% 26 299747 2354 38%
c i 32.69 1382 90 1  42  679  516 30% 25 299747 2353 38%
c i 32.72 1382 88 1  42  694  521 30% 24 299747 2352 38%
c 
c  seconds    reductions  redundant   irredundant
c          MB     restarts       trail       variables
c            level   conflicts       glue         remaining
c 
c i 32.74 1382 88 1  42  695  521 30% 24 299747 2351 38%
c i 32.81 1382 86 1  42  723  543 30% 24 299747 2350 38%
c i 32.81 1382 86 1  42  725  544 30% 24 299747 2349 38%
c i 32.81 1382 86 1  42  726  544 30% 24 299747 2348 38%
c i 32.82 1382 86 1  42  728  545 30% 24 299747 2347 38%
c i 33.00 1383 87 1  42  741  554 30% 25 299747 2346 38%
c i 33.12 1383 89 1  47  756  565 29% 26 299747 2345 38%
c i 33.50 1383 91 1  56  798  602 29% 29 299747 2344 38%
c i 35.40 1383 92 1  94  967  745 29% 32 299747 2343 38%
c i 35.45 1383 91 1  95  968  745 29% 32 299747 2342 38%
c i 35.51 1383 91 1  95  975  749 29% 32 299747 2341 38%
c } 35.81 1383 90 1  97 1002  774 29% 31 299747 2341 38%
c [ 35.81 1383  0 1  97 1002  774  0% 0 299747 2341 38%
c O 35.84 1383  3 1  97 1003  775 15% 3 299747 2341 38%
c i 36.34 1383 26 1  97 1067  828 32% 20 299747 2340 38%
c i 36.34 1383 26 1  97 1068  828 32% 20 299747 2339 38%
c i 36.34 1383 26 1  97 1069  828 32% 20 299747 2338 38%
c i 36.36 1383 25 1  97 1079  836 32% 19 299747 2337 38%
c - 37.27 1516 28 2  97 1187  809 33% 24 299603 2337 38%
c i 37.70 1516 30 2  97 1477 1040 32% 26 299603 2336 38%
c 
c  seconds    reductions  redundant   irredundant
c          MB     restarts       trail       variables
c            level   conflicts       glue         remaining
c 
c i 37.86 1516 30 2  97 1782 1282 32% 26 299603 2335 38%
c i 38.25 1516 31 2  98 2498 1826 32% 27 299603 2334 38%
c i 38.26 1516 31 2  98 2507 1834 32% 27 299603 2333 38%
c - 38.66 1515 31 3  98 2516 1423 32% 27 299591 2333 38%
c i 39.08 1515 31 3  98 2786 1654 54% 27 299591 2332 38%
c ] 39.16 1515 30 3  98 3002 1812 55% 26 299591 2332 38%
c { 39.16 1515 90 3  98 3002 1812 77% 31 299591 2332 38%
c F 39.18 1515 90 3  98 3005 1815 77% 31 299591 2332 38%
c i 39.36 1515 89 3  98 3029 1834 76% 31 299591 2331 38%
c i 39.49 1515 88 3  98 3062 1849 75% 31 299591 2330 38%
c i 39.76 1515 86 3 100 3122 1903 73% 31 299591 2329 38%
c i 39.79 1515 86 3 100 3128 1907 73% 31 299591 2328 38%
c i 39.79 1515 86 3 100 3130 1908 73% 31 299591 2327 38%
c i 40.11 1515 85 3 106 3194 1963 72% 31 299591 2326 38%
c i 40.25 1515 83 3 107 3259 2015 71% 31 299591 2325 38%
c i 40.26 1515 83 3 107 3268 2022 70% 31 299591 2324 38%
c i 40.56 1515 78 3 112 3424 2151 68% 31 299591 2323 38%
c i 41.04 1515 77 3 128 3603 2311 65% 32 299591 2322 38%
c i 41.68 1515 78 3 160 3727 2415 64% 33 299591 2321 38%
c i 43.04 1515 79 3 214 3958 2613 62% 35 299591 2320 38%
c 
c  seconds    reductions  redundant   irredundant
c          MB     restarts       trail       variables
c            level   conflicts       glue         remaining
c 
c i 43.04 1515 79 3 214 3962 2616 62% 35 299591 2319 38%
c i 43.71 1515 80 3 243 4074 2721 61% 35 299591 2318 38%
c i 44.02 1515 82 3 250 4129 2772 61% 36 299591 2317 38%
c i 44.19 1515 80 3 253 4210 2831 60% 35 299591 2316 38%
c i 44.28 1515 80 3 256 4234 2853 60% 35 299591 2315 38%
c i 44.30 1515 80 3 256 4248 2865 60% 35 299591 2314 38%
c - 44.74 1511 80 4 256 4287 2075 59% 35 299534 2314 38%
c i 44.78 1511 80 4 256 4288 2075 59% 35 299534 2313 38%
c i 44.80 1511 79 4 256 4294 2079 59% 35 299534 2312 38%
c i 45.65 1511 78 4 268 4567 2323 58% 35 299534 2311 38%
c i 45.96 1511 73 4 272 4968 2640 57% 34 299534 2310 38%
c 2 46.55 1511 72 4 272 5000 3712 57% 34 299494 2301 37%
c p 49.86 1511 72 4 272 5000 5900 57% 34 299494 2236 36%
c d 50.35 1511 72 4 272 5000 5750 57% 34 298902 2235 36%
c # 52.47 1511 66 4 324 6006 6512 55% 34 298902 2235 36%
c - 53.75 1504 63 5 344 6501 2832 54% 33 298902 2235 36%
c } 54.07 1504 60 5 344 7011 3199 54% 32 298902 2235 36%
c [ 54.07 1504 30 5 344 7011 3199 55% 26 298902 2235 36%
c - 55.01 1385 30 6 345 9159 3168 51% 26 298902 2235 36%
c I 55.39 1385 29 6 346 10008 3672 51% 25 298902 2235 36%
c 
c  seconds    reductions   redundant   irredundant
c          MB     restarts        trail       variables
c            level    conflicts       glue         remaining
c 
c - 59.10 1506 49 7 348 12257 3775 49% 40 298902 2235 36%
c 2 61.63 1506 58 7 349 15000 6849 48% 47 298902 2235 36%
c p 63.93 1506 58 7 349 15000 9069 48% 47 298902 2234 36%
c B 64.09 1506 58 7 349 15010 9078 48% 47 298902 2234 36%
c ] 64.15 1506 58 7 349 15011 9079 48% 47 298902 2234 36%
c { 64.15 1506 60 7 349 15011 9079 54% 32 298902 2234 36%
c - 65.33 1385 57 8 352 15798 4641 53% 31 298899 2234 36%
c s 67.39 1385 46 8 365 18767 6629 52% 28 297344 2234 36%
c v 73.87 1385 46 8 365 18767 6629 52% 28 297332 2234 36%
c t 73.99 1385 46 8 365 18767 6613 52% 28 297327 2234 36%
c e 75.17 1387 46 8 365 18767 6393 52% 28 294587 896 15%
c s 75.28 1387 46 8 365 18767 6393 52% 28 294163 896 15%
c - 77.65 1345 44 9 366 19782 4862 73% 27 294163 896 15%
c B 78.35 1345 42 9 379 21011 5743 73% 27 294163 896 15%
c - 81.12 1345 39 10 388 24188 5407 73% 25 294163 896 15%
c W 86.35 1345 36 10 492 28012 7976 73% 24 294163 896 15%
c - 91.35 1345 37 11 676 29035 6004 73% 25 294163 896 15%
c p 95.16 1345 37 11 717 30000 8395 73% 25 294163 896 15%
c } 96.89 1345 36 11 720 31012 9039 73% 24 294163 896 15%
c [ 96.89 1345 58 11 720 31012 9039 125% 47 294163 896 15%
c 
c  seconds    reductions     redundant    irredundant
c          MB      restarts         trail        variables
c            level     conflicts         glue        remaining
c 
c ] 99.05 1345 51 11 721 33909 10962 111% 41 294163 896 15%
c 1 99.05 1345 51 11 721 33909 10962 111% 41 294163 896 15%
c 
c --- [ writing output ] -----------------------------------------------------
c 
c writing simplified CNF to DIMACS file 'simp/33.cubes2633.adj.simp1'
c * 99.05 1345 51 11 721 33909 10962 111% 41 294163 896 15%
c opening file to write 'simp/33.cubes2633.adj.simp1'
c writing 'p cnf 6160 294163' header
c closing file 'simp/33.cubes2633.adj.simp1'
c after writing 138534709 bytes 132.1 MB
c wrote 294163 clauses in 0.99 seconds process time
c 
c --- [ writing extension ] --------------------------------------------------
c 
c writing extension stack to 'simp/33.cubes2633.adj.ext1'
c opening file to write 'simp/33.cubes2633.adj.ext1'
c closing file 'simp/33.cubes2633.adj.ext1'
c after writing 88025 bytes 0.1 MB
c wrote 3905 witnesses in 0.00 seconds process time
c 
c --- [ result ] -------------------------------------------------------------
c 
s SATISFIABLE
c 
c --- [ run-time profiling ] -------------------------------------------------
c 
c process time taken by individual solving procedures
c (percentage relative to process time for solving)
c 
c        62.03   77.53% search
c        46.79   58.48% unstable
c        19.03   23.79% parse
c        17.98   22.47% simplify
c        13.20   16.50% stable
c         7.70    9.62% probe
c         6.56    8.20% vivify
c         2.22    2.78% elim
c         1.90    2.38% lucky
c         0.22    0.28% subsume
c         0.14    0.18% ternary
c         0.13    0.17% walk
c   =================================
c        80.01   79.98% solve
c 
c last line shows process time for solving
c (percentage relative to total process time)
c 
c --- [ statistics ] ---------------------------------------------------------
c 
c chronological:              6619        19.52 %  of conflicts
c conflicts:                 33909       423.79    per second
c decisions:                101723      1271.33    per second
c eliminated:                 1338        21.72 %  of all variables
c fixed:                       772        12.53 %  of all variables
c learned:                   33107        97.63 %  per conflict
c learned_lits:            6400612       100.00 %  learned literals
c minimized:                     0         0.00 %  learned literals
c shrunken:                4128545        64.50 %  learned literals
c minishrunken:             371061         5.80 %  learned literals
c propagations:            3756857         0.05 M  per second
c reduced:                   15043        44.36 %  per conflict
c rephased:                      7      4844.14    interval
c restarts:                    721        47.03    interval
c stabilizing:                   3        38.03 %  of conflicts
c substituted:                  10         0.16 %  of all variables
c subsumed:                  10616         0.31 %  of all clauses
c strengthened:               3433         0.10 %  of all clauses
c ternary:                    2455         0.59 %  of resolved
c vivified:                     25         0.00 %  of all clauses
c walked:                        1     33909.00    interval
c weakened:                   3133         3.02    average size
c 
c seconds are measured in process time for solving
c 
c --- [ resources ] ----------------------------------------------------------
c 
c total process time since initialization:       100.04    seconds
c total real time since initialization:          101.60    seconds
c maximum resident set size of process:         1647.96    MB
c 
c --- [ shutting down ] ------------------------------------------------------
c 
c exit 10
WARNING! DIMACS header mismatch: wrong number of variables.
============================[ Problem Statistics ]=============================
|                                                                             |
|  Number of variables:          3250                                         |
|  Number of clauses:          294163                                         |
|  Parse time:                   1.91 s                                       |
|  Simplification time:          0.07 s                                       |
|                                                                             |
============================[ Search Statistics ]====================================================
| Conflicts |          ORIGINAL         |          LEARNT          | Num Sols |      SUBGRAPHS      |
|           |    Vars  Clauses Literals |    Limit  Clauses Lit/Cl |          | Canonical Noncanon. |
=====================================================================================================
|       107 |    3159   294170 30064282 |     2000      107    162 |        0 |        18         7 |
|       265 |    3159   294178 30064649 |     2000      265    121 |        0 |        28        15 |
|       492 |    3159   294180 30064691 |     2000      492    109 |        0 |        34        17 |
|       829 |    3159   294180 30064691 |     2000      829    110 |        0 |        38        17 |
|      1342 |    3159   294187 30064941 |     2000     1342    108 |        0 |        51        24 |
|      2425 |    3159   294511 30071607 |     3600     1425     65 |        0 |       154       348 |
|      4098 |    3159   295045 30079924 |     3600     3098     79 |        0 |       208       882 |
|      9227 |    3159   298466 30127749 |     6301     3928     34 |        0 |       682      4303 |
|     12001 |    3159   298678 30132525 |     7558     3559     23 |        0 |       769      4515 |
|     16557 |    3159   299390 30146452 |     8783     4340     26 |        0 |       941      5227 |
|     22530 |    3159   299597 30150661 |     9991     5921     40 |        0 |      1010      5434 |
|     31822 |    3159   300240 30162416 |    11194    10216     61 |        0 |      1215      6077 |
|     45142 |    3159   300586 30168631 |    13604    11746     66 |        0 |      1333      6423 |
|     64948 |    3159   300931 30175126 |    17206     9354     35 |        0 |      1465      6768 |
|     95234 |    3159   302025 30193784 |    20812    12046     45 |        0 |      1891      7862 |
|    139664 |    3159   302666 30205790 |    24408    23472     74 |        0 |      2197      8503 |
|    208029 |    3159   305347 30258041 |    30414    24843     68 |        1 |      2929     11183 |
|    308585 |    3159   307377 30300580 |    37609    25194     60 |        1 |      3677     13213 |
|    459676 |    3159   310679 30354730 |    46024    32100     63 |        1 |      4627     16515 |
|    684386 |    3159   313706 30414204 |    56825    28211     40 |        1 |      5727     19542 |
|   1023408 |    3159   320203 30542923 |    68810    56218     73 |        1 |      7230     26039 |
|   1527552 |    3159   325559 30628562 |    84411    66363     66 |        1 |      8134     31395 |
|   2283075 |    3159   332900 30769635 |   103615    74690     68 |        1 |     10157     38736 |
|   3421368 |    3159   348919 31127041 |   126422   126190     78 |        3 |     15671     54753 |
|   5117339 |    3159   361479 31418022 |   155221   139760     76 |        5 |     19171     67311 |
|   7670932 |    3159   389956 31970694 |   191224   104356     44 |        6 |     26852     95787 |
|  11483192 |    3159   414541 32524493 |   233218   213610     71 |       12 |     37438    120366 |
|  17229817 |    3159   479654 34003694 |   286023   262240     69 |       31 |     63389    185460 |
|  25856177 |    3159   583745 36416737 |   350821   307998     69 |      120 |     97566    289462 |
|  38832774 |    3147   333315 26924253 |   428499   419673     75 |      149 |    124350    482627 |
=====================================================================================================
Number of solutions   : 153
Canonical subgraphs   : 132608         (14 /sec)
          order  3    : 1              (166667 /sec)
          order  4    : 1              (142857 /sec)
          order  5    : 1              (250000 /sec)
          order  6    : 1              (50000 /sec)
          order  7    : 1              (8264 /sec)
          order  8    : 2              (1362 /sec)
          order  9    : 7              (354 /sec)
          order 10    : 27             (101 /sec)
          order 11    : 108            (30 /sec)
          order 12    : 600            (22 /sec)
          order 13    : 3733           (19 /sec)
          order 14    : 8528           (26 /sec)
          order 15    : 30909          (19 /sec)
          order 16    : 53877          (13 /sec)
          order 17    : 22883          (14 /sec)
          order 18    : 3671           (12 /sec)
          order 19    : 2578           (12 /sec)
          order 20    : 2670           (12 /sec)
          order 21    : 2857           (11 /sec)
          order 22    : 153            (1 /sec)
Noncanonical subgraphs: 497958         (153 /sec)
          order  3    : 0              (-nan /sec)
          order  4    : 0              (-nan /sec)
          order  5    : 0              (-nan /sec)
          order  6    : 0              (-nan /sec)
          order  7    : 0              (-nan /sec)
          order  8    : 0              (-nan /sec)
          order  9    : 0              (-nan /sec)
          order 10    : 0              (-nan /sec)
          order 11    : 0              (-nan /sec)
          order 12    : 0              (-nan /sec)
          order 13    : 8465           (6988 /sec)
          order 14    : 102898         (933 /sec)
          order 15    : 50888          (1035 /sec)
          order 16    : 97203          (469 /sec)
          order 17    : 233458         (91 /sec)
          order 18    : 2204           (58 /sec)
          order 19    : 0              (-nan /sec)
          order 20    : 17             (83 /sec)
          order 21    : 3              (68 /sec)
Canonicity checking   : 9245 s
Noncanonicity checking: 3263.1 s
Total canonicity time : 12508.1 s
database reductions   : 386
restarts              : 64438
conflicts             : 45416293       (1029 /sec)
decisions             : 54802368       (0.00 % random) (1241 /sec)
propagations          : 1974483676     (44716 /sec)
conflict literals     : 5121886240     (57.75 % deleted)
actual reward         : 0.284897
Memory used           : 691.00 MB
CPU time              : 44155.6 s

UNSATISFIABLE
